 200 14 
 96 4 21 60 33 20 20 91 90 23 45 35 
 49 62 
 4 
 4 7 8 13 
 10 
 1 3 4 5 8 9 11 12 13 14 
 14 
 1 2 3 4 5 6 7 8 9 10 11 12 
 13 14 
 3 
 4 7 12 
 4 
 6 7 12 13 
 7 
 1 4 5 7 11 12 13 
 3 
 1 4 11 
 2 
 3 5 
 8 
 1 2 4 6 8 9 12 13 
 4 
 4 9 11 13 
 8 
 1 3 4 8 9 10 12 13 
 7 
 2 3 4 6 11 12 14 
 13 
 1 2 3 4 5 6 7 8 10 11 12 13 
 14 
 13 
 1 2 3 5 6 7 8 9 10 11 12 13 
 14 
 3 
 3 8 11 
 8 
 1 4 5 6 7 9 13 14 
 10 
 1 3 5 6 8 9 10 11 13 14 
 7 
 1 3 4 7 8 11 12 
 10 
 1 3 4 5 6 8 10 11 12 14 
 3 
 9 12 13 
 9 
 1 2 4 5 6 7 9 11 13 
 4 
 3 6 7 8 
 14 
 1 2 3 4 5 6 7 8 9 10 11 12 
 13 14 
 2 
 3 14 
 11 
 1 2 3 4 6 8 9 10 11 12 14 
 4 
 2 5 12 13 
 14 
 1 2 3 4 5 6 7 8 9 10 11 12 
 13 14 
 8 
 1 3 4 5 7 9 13 14 
 11 
 2 3 4 5 6 7 8 9 10 11 13 
 3 
 7 12 14 
 2 
 7 14 
 10 
 1 3 4 5 6 7 8 9 10 12 
 5 
 1 2 8 10 14 
 6 
 1 2 4 7 9 10 
 3 
 1 8 11 
 3 
 3 10 14 
 7 
 1 4 5 6 7 12 14 
 5 
 3 6 7 8 14 
 11 
 1 2 4 5 6 7 8 10 12 13 14 
 13 
 2 3 4 5 6 7 8 9 10 11 12 13 
 14 
 3 
 7 10 14 
 2 
 10 14 
 4 
 1 3 5 11 
 14 
 1 2 3 4 5 6 7 8 9 10 11 12 
 13 14 
 4 
 2 3 10 12 
 2 
 8 9 
 3 
 4 7 9 
 10 
 2 3 4 5 7 8 9 10 11 13 
 13 
 1 2 3 4 5 6 7 9 10 11 12 13 
 14 
 14 
 1 2 3 4 5 6 7 8 9 10 11 12 
 13 14 
 11 
 1 2 3 4 5 6 7 9 10 12 14 
 12 
 1 2 4 5 6 7 8 10 11 12 13 14 
 4 
 1 4 5 8 
 4 
 1 4 7 8 
 4 
 2 5 6 7 
 2 
 3 4 
 3 
 4 6 13 
 12 
 1 2 3 4 5 6 9 10 11 12 13 14 
 10 
 1 4 5 8 9 10 11 12 13 14 
 2 
 9 12 
 11 
 1 2 5 6 7 8 9 11 12 13 14 
 4 
 2 4 10 11 
 10 
 1 2 4 5 6 9 10 11 12 14 
 10 
 1 3 4 5 6 7 8 9 13 14 
 2 
 5 7 
 2 
 3 13 
 14 
 1 2 3 4 5 6 7 8 9 10 11 12 
 13 14 
 5 
 5 6 11 13 14 
 2 
 13 14 
 5 
 3 4 6 12 14 
 9 
 1 2 3 6 8 10 11 12 14 
 14 
 1 2 3 4 5 6 7 8 9 10 11 12 
 13 14 
 4 
 2 5 6 12 
 12 
 1 2 4 5 6 8 9 10 11 12 13 14 
 3 
 11 13 14 
 13 
 1 2 3 4 5 6 7 8 10 11 12 13 
 14 
 13 
 1 2 3 4 5 7 8 9 10 11 12 13 
 14 
 12 
 1 2 3 4 5 6 8 9 10 11 12 13 
 6 
 1 8 9 10 12 13 
 4 
 4 8 11 13 
 12 
 1 3 4 6 7 8 9 10 11 12 13 14 
 5 
 1 4 7 11 13 
 6 
 2 4 7 8 9 14 
 4 
 9 11 12 14 
 5 
 1 3 6 8 9 
 4 
 7 8 11 12 
 7 
 1 5 7 9 10 12 13 
 6 
 6 8 9 11 12 14 
 4 
 5 7 9 10 
 4 
 1 10 11 13 
 9 
 1 2 4 6 7 9 11 12 13 
 3 
 2 9 10 
 10 
 1 2 3 4 6 7 9 10 12 13 
 9 
 2 3 4 5 8 10 11 12 14 
 10 
 1 2 3 4 5 6 7 9 11 12 
 10 
 2 3 4 5 7 8 10 12 13 14 
 4 
 4 6 7 8 
 6 
 2 4 6 10 13 14 
 2 
 4 9 
 12 
 1 2 3 4 5 6 7 8 10 11 12 14 
 7 
 1 3 5 9 11 13 14 
 2 
 6 8 
 8 
 1 3 5 6 7 9 12 14 
 5 
 1 7 8 12 13 
 2 
 8 9 
 8 
 2 5 6 8 9 10 12 13 
 8 
 2 4 5 6 10 11 12 14 
 4 
 1 10 13 14 
 2 
 1 6 
 11 
 1 3 4 7 8 9 10 11 12 13 14 
 8 
 2 3 4 5 6 7 8 11 
 6 
 2 6 7 8 10 13 
 9 
 1 3 4 6 9 11 12 13 14 
 12 
 1 2 3 4 5 6 7 8 9 11 13 14 
 10 
 1 2 3 4 6 8 10 11 12 13 
 9 
 3 4 5 6 7 8 9 10 14 
 13 
 1 2 3 4 6 7 8 9 10 11 12 13 
 14 
 3 
 7 8 10 
 9 
 4 5 6 7 8 9 12 13 14 
 3 
 1 5 6 
 8 
 3 4 5 6 8 10 11 13 
 9 
 1 2 5 6 7 8 11 13 14 
 5 
 3 4 5 9 11 
 5 
 3 5 9 12 13 
 6 
 3 4 5 7 8 14 
 9 
 1 2 4 6 7 8 9 10 12 
 9 
 1 2 3 4 5 6 10 12 14 
 11 
 1 2 3 5 6 8 9 10 11 12 13 
 13 
 1 3 4 5 6 7 8 9 10 11 12 13 
 14 
 3 
 4 6 8 
 8 
 3 4 6 7 8 9 10 14 
 11 
 1 2 3 4 5 6 7 9 11 13 14 
 11 
 1 2 4 5 7 8 9 10 11 13 14 
 2 
 3 13 
 14 
 1 2 3 4 5 6 7 8 9 10 11 12 
 13 14 
 12 
 1 2 3 4 5 6 7 8 9 11 12 14 
 10 
 1 3 4 5 6 7 8 9 13 14 
 14 
 1 2 3 4 5 6 7 8 9 10 11 12 
 13 14 
 13 
 1 2 3 4 5 6 7 8 9 10 11 12 
 14 
 11 
 1 2 5 7 8 9 10 11 12 13 14 
 12 
 1 2 3 6 7 8 9 10 11 12 13 14 
 12 
 1 2 3 4 6 7 8 10 11 12 13 14 
 12 
 1 3 4 6 7 8 9 10 11 12 13 14 
 2 
 5 14 
 4 
 1 5 10 13 
 6 
 1 5 6 9 10 11 
 3 
 5 9 12 
 10 
 1 2 3 4 5 6 7 8 9 12 
 2 
 1 8 
 13 
 1 2 3 4 5 6 7 8 9 10 11 12 
 13 
 12 
 1 2 3 4 5 6 7 8 9 10 13 14 
 8 
 2 4 6 7 8 11 13 14 
 10 
 1 2 4 5 6 8 10 11 13 14 
 9 
 1 3 4 7 8 10 11 13 14 
 5 
 1 2 3 9 14 
 7 
 1 2 5 7 8 11 13 
 9 
 2 4 7 8 9 10 11 12 14 
 8 
 1 2 4 9 10 12 13 14 
 9 
 1 3 5 6 7 8 9 10 12 
 4 
 5 6 11 13 
 12 
 1 4 5 6 7 8 9 10 11 12 13 14 
 11 
 1 3 4 5 7 8 9 10 11 12 14 
 14 
 1 2 3 4 5 6 7 8 9 10 11 12 
 13 14 
 5 
 1 3 9 12 13 
 2 
 2 11 
 13 
 1 2 3 4 5 6 8 9 10 11 12 13 
 14 
 5 
 1 3 7 10 12 
 14 
 1 2 3 4 5 6 7 8 9 10 11 12 
 13 14 
 9 
 1 2 4 7 8 9 10 11 13 
 11 
 1 2 4 5 6 8 9 10 12 13 14 
 11 
 1 3 4 5 6 7 8 10 12 13 14 
 5 
 2 3 8 9 13 
 6 
 2 7 8 11 12 13 
 8 
 1 2 4 5 7 8 12 14 
 2 
 8 11 
 11 
 1 2 4 5 7 8 9 10 11 13 14 
 12 
 1 2 3 4 5 7 8 9 10 11 12 14 
 3 
 2 7 14 
 5 
 1 4 5 7 14 
 4 
 3 4 9 11 
 12 
 1 2 3 4 5 6 8 9 10 12 13 14 
 13 
 1 2 4 5 6 7 8 9 10 11 12 13 
 14 
 3 
 2 3 8 
 12 
 2 3 4 6 7 8 9 10 11 12 13 14 
 8 
 2 3 4 6 10 11 13 14 
 5 
 5 9 11 12 13 
 3 
 4 11 14 
 5 
 5 9 10 11 13 
 2 
 7 10 
 10 
 1 2 4 5 7 8 10 12 13 14 
 4 
 2 4 7 11 
 8 
 1 3 4 6 7 9 10 12 
 12 
 1 3 4 5 7 8 9 10 11 12 13 14 
 14 
 1 2 3 4 5 6 7 8 9 10 11 12 
 13 14 
 12 
 1 2 3 4 5 6 8 9 10 12 13 14 
 4 
 2 6 7 14 
 6 
 1 2 3 6 7 12 
 2 
 2 6 
 11 
 1 2 3 5 6 8 9 10 11 13 14 
 12 
 1 2 3 4 5 7 8 9 10 12 13 14 
 